* ENCODING=ISO-8859-1
NAME          CPLEX
ROWS
 N  obj1    
 G  c1      
 G  c2      
 G  c3      
 G  c4      
 G  c5      
 G  c6      
 G  c7      
 G  c8      
 G  c9      
 G  c10     
 G  c11     
 G  c12     
 G  c13     
 G  c14     
 G  c15     
 G  c16     
 G  c17     
 G  c18     
 G  c19     
 G  c20     
 G  c21     
 G  c22     
 G  c23     
 G  c24     
 G  c25     
 G  c26     
 G  c27     
 G  c28     
 G  c29     
 G  c30     
COLUMNS
    MARK0000  'MARKER'                 'INTORG'
    x1        obj1                            1
    x1        c10                           821
    x1        c17                           384
    x1        c21                           922
    x1        c29                           421
    x2        obj1                            1
    x2        c2                            114
    x2        c10                           185
    x2        c15                           675
    x2        c25                           480
    x2        c26                           737
    x3        obj1                            1
    x3        c9                            156
    x3        c19                           729
    x4        obj1                            1
    x4        c6                            983
    x4        c10                           934
    x4        c14                           143
    x4        c21                           481
    x4        c23                           937
    x5        obj1                            1
    x5        c5                            876
    x5        c11                           825
    x5        c18                           940
    x6        obj1                            1
    x6        c13                           783
    x6        c29                           474
    x7        obj1                            1
    x7        c4                            707
    x7        c23                           206
    x8        obj1                            1
    x8        c4                            207
    x8        c5                            391
    x8        c9                            455
    x8        c21                           999
    x8        c22                           408
    x8        c27                           655
    x9        obj1                            1
    x9        c3                            577
    x9        c12                           955
    x9        c17                           819
    x10       obj1                            1
    x10       c2                            767
    x10       c15                           835
    x10       c30                           844
    x11       obj1                            1
    x11       c1                            150
    x11       c7                            797
    x11       c18                           901
    x11       c28                           370
    x11       c29                           124
    x12       obj1                            1
    x12       c3                            931
    x12       c5                            944
    x13       obj1                            1
    x13       c6                            547
    x13       c18                           381
    x14       obj1                            1
    x14       c12                           406
    x14       c20                           704
    x14       c21                           153
    x15       obj1                            1
    x15       c28                           152
    x16       obj1                            1
    x16       c3                            178
    x16       c8                            671
    x16       c10                           187
    x17       obj1                            1
    x17       c5                            426
    x17       c9                            563
    x17       c18                           713
    x17       c21                           240
    x18       obj1                            1
    x18       c9                            540
    x18       c13                           107
    x18       c28                           948
    x19       obj1                            1
    x19       c3                            882
    x19       c5                            425
    x19       c7                            634
    x19       c12                           558
    x19       c17                           193
    x19       c19                           432
    x19       c23                           483
    x20       obj1                            1
    x20       c10                           599
    x20       c18                           257
    x20       c23                           424
    x20       c26                           611
    x20       c29                           168
    x21       obj1                            1
    x21       c11                           670
    x21       c16                           808
    x22       obj1                            1
    x22       c9                            141
    x23       obj1                            1
    x23       c7                            876
    x23       c14                           129
    x23       c18                           206
    x23       c23                           911
    x23       c24                           623
    x23       c28                           757
    x24       obj1                            1
    x24       c2                            867
    x24       c10                           374
    x24       c12                           329
    x24       c13                           463
    x24       c18                           537
    x25       obj1                            1
    x25       c13                           651
    x25       c19                           509
    x26       obj1                            1
    x26       c11                           277
    x27       obj1                            1
    x27       c8                            651
    x27       c12                           961
    x27       c15                           710
    x27       c26                           567
    x28       obj1                            1
    x28       c8                            167
    x28       c22                           693
    x28       c29                           235
    x29       obj1                            1
    x29       c12                           899
    x29       c16                           754
    x30       obj1                            1
    x30       c8                            367
    x30       c12                           346
    x31       obj1                            1
    x31       c2                            797
    x31       c3                            208
    x31       c7                            410
    x31       c10                           325
    x31       c13                           848
    x31       c23                           688
    x32       obj1                            1
    x32       c3                            466
    x32       c8                            390
    x32       c17                           115
    x32       c30                           722
    x33       obj1                            1
    x33       c18                           144
    x33       c22                           311
    x33       c26                           953
    x34       obj1                            1
    x34       c30                           461
    x35       obj1                            1
    x35       c6                            939
    x35       c17                           459
    x35       c28                           480
    x36       obj1                            1
    x36       c6                            895
    x36       c8                            127
    x36       c12                           485
    x36       c25                           552
    x36       c26                           763
    x36       c27                           199
    x37       obj1                            1
    x37       c1                            986
    x37       c6                            525
    x37       c7                            234
    x37       c9                            138
    x37       c13                           416
    x37       c27                           907
    x38       obj1                            1
    x38       c28                           128
    x39       obj1                            1
    x40       obj1                            1
    x40       c1                            255
    x40       c2                            217
    x40       c5                            881
    x40       c24                           232
    x41       obj1                            1
    x41       c4                            554
    x41       c11                           314
    x42       obj1                            1
    x42       c15                           450
    x42       c29                           548
    x43       obj1                            1
    x43       c20                           952
    x43       c23                           339
    x44       obj1                            1
    x44       c9                            240
    x44       c11                           474
    x44       c16                           901
    x45       obj1                            1
    x45       c11                           417
    x45       c21                           404
    x46       obj1                            1
    x46       c6                            411
    x46       c26                           488
    x46       c30                           983
    x47       obj1                            1
    x47       c4                            785
    x47       c5                            110
    x47       c11                           328
    x47       c23                           738
    x48       obj1                            1
    x48       c10                           511
    x48       c13                           984
    x48       c25                           749
    x49       obj1                            1
    x49       c4                            612
    x49       c11                           592
    x49       c13                           310
    x50       obj1                            1
    x50       c16                           795
    x50       c26                           670
    x51       obj1                            1
    x51       c8                            310
    x51       c14                           353
    x51       c27                           895
    x52       obj1                            1
    x52       c8                            999
    x52       c9                            199
    x52       c20                           351
    x53       obj1                            1
    x53       c15                           406
    x53       c18                           852
    x54       obj1                            1
    x54       c25                           326
    x54       c26                           334
    x54       c27                           418
    x55       obj1                            1
    x55       c8                            337
    x55       c30                           470
    x56       obj1                            1
    x56       c5                            484
    x56       c24                           709
    x56       c30                           617
    x57       obj1                            1
    x57       c5                            753
    x57       c17                           361
    x58       obj1                            1
    x58       c13                           840
    x58       c21                           530
    x59       obj1                            1
    x59       c3                            954
    x59       c12                           689
    x59       c15                           836
    x59       c16                           754
    x60       obj1                            1
    x60       c2                            696
    x60       c4                            700
    x60       c30                           808
    MARK0001  'MARKER'                 'INTEND'
RHS
    rhs       c1                            696
    rhs       c2                           1729
    rhs       c3                           2098
    rhs       c4                           1783
    rhs       c5                           2645
    rhs       c6                           2150
    rhs       c7                           1476
    rhs       c8                           2010
    rhs       c9                           1216
    rhs       c10                          1968
    rhs       c11                          1949
    rhs       c12                          2814
    rhs       c13                          2701
    rhs       c14                           313
    rhs       c15                          1956
    rhs       c16                          2006
    rhs       c17                          1166
    rhs       c18                          2466
    rhs       c19                           835
    rhs       c20                          1004
    rhs       c21                          1865
    rhs       c22                           706
    rhs       c23                          2363
    rhs       c24                           782
    rhs       c25                          1054
    rhs       c26                          2562
    rhs       c27                          1537
    rhs       c28                          1418
    rhs       c29                           985
    rhs       c30                          2453
BOUNDS
 LI bnd       x1        0
 LI bnd       x2        0
 LI bnd       x3        0
 LI bnd       x4        0
 LI bnd       x5        0
 LI bnd       x6        0
 LI bnd       x7        0
 LI bnd       x8        0
 LI bnd       x9        0
 LI bnd       x10       0
 LI bnd       x11       0
 LI bnd       x12       0
 LI bnd       x13       0
 LI bnd       x14       0
 LI bnd       x15       0
 LI bnd       x16       0
 LI bnd       x17       0
 LI bnd       x18       0
 LI bnd       x19       0
 LI bnd       x20       0
 LI bnd       x21       0
 LI bnd       x22       0
 LI bnd       x23       0
 LI bnd       x24       0
 LI bnd       x25       0
 LI bnd       x26       0
 LI bnd       x27       0
 LI bnd       x28       0
 LI bnd       x29       0
 LI bnd       x30       0
 LI bnd       x31       0
 LI bnd       x32       0
 LI bnd       x33       0
 LI bnd       x34       0
 LI bnd       x35       0
 LI bnd       x36       0
 LI bnd       x37       0
 LI bnd       x38       0
 LI bnd       x39       0
 LI bnd       x40       0
 LI bnd       x41       0
 LI bnd       x42       0
 LI bnd       x43       0
 LI bnd       x44       0
 LI bnd       x45       0
 LI bnd       x46       0
 LI bnd       x47       0
 LI bnd       x48       0
 LI bnd       x49       0
 LI bnd       x50       0
 LI bnd       x51       0
 LI bnd       x52       0
 LI bnd       x53       0
 LI bnd       x54       0
 LI bnd       x55       0
 LI bnd       x56       0
 LI bnd       x57       0
 LI bnd       x58       0
 LI bnd       x59       0
 LI bnd       x60       0
ENDATA
